68 100
5 8 1
8 8 1
1 7 2
6 6 4
1 5 3
2 2 1
3 4 2
9 4 1
9 7 1
6 2 3
3 3 1
2 3 1
3 2 2
10 9 2
7 2 2
9 2 2
4 6 1
10 3 2
4 3 2
1 3 3
6 4 1
8 6 1
10 10 2
7 7 2
6 8 1
6 10 1
8 10 1
9 1 1
8 9 2
5 3 3
8 5 1
5 10 2
8 7 1
3 9 5
8 1 1
10 7 1
9 3 2
10 5 1
4 9 1
7 1 1
6 1 2
5 6 1
9 9 2
7 5 1
7 6 1
3 1 1
10 4 1
5 4 1
3 10 1
1 9 1
5 9 1
10 1 2
2 4 1
10 2 1
9 6 1
5 7 1
1 4 2
2 8 1
3 6 1
9 10 1
4 5 1
7 4 1
3 7 1
10 8 1
8 4 1
7 9 1
5 5 1
3 5 1
30 30 
30 30 
30 30 
30 30 
30 30 
30 30 
30 30 
30 30 
30 30 
30 30 
30 30 
30 30 
30 30 
30 30 
30 30 
30 30 
30 30 
30 30 
30 30 
30 30 
30 30 
30 30 
30 30 
30 30 
30 30 
30 30 
30 30 
30 30 
30 30 
30 30 
30 30 
30 30 
30 30 
30 30 
30 30 
30 30 
30 30 
30 30 
30 30 
30 30 
30 30 
30 30 
30 30 
30 30 
30 30 
30 30 
30 30 
30 30 
30 30 
30 30 
30 30 
30 30 
30 30 
30 30 
30 30 
30 30 
30 30 
30 30 
30 30 
30 30 
30 30 
30 30 
30 30 
30 30 
30 30 
30 30 
30 30 
30 30 
30 30 
30 30 
30 30 
30 30 
30 30 
30 30 
30 30 
30 30 
30 30 
30 30 
30 30 
30 30 
30 30 
30 30 
30 30 
30 30 
30 30 
30 30 
30 30 
30 30 
30 30 
30 30 
30 30 
30 30 
30 30 
30 30 
30 30 
30 30 
30 30 
30 30 
30 30 
30 30 
